NAME : 30_2_08.38427.tour
COMMENT : Cost = 0_38427
COMMENT : Found by LKH [Keld Helsgaun] Thu Sep 14 11:07:26 2017
TYPE : TOUR
DIMENSION : 32
TOUR_SECTION
1
18
23
24
25
3
5
32
2
19
9
11
12
13
28
8
6
30
21
7
16
22
20
27
14
17
29
31
26
15
10
4
-1
EOF
